SAT
51 11 -57 -67 76 23 84 -87 -6 69 -58 -61 34 -14 -3 35 -62 33 -19 79 27 -29 -81 98 -63 93 74 28 -86 55 -1 9 82 -47 52 7 46 100 70 -45 99 -65 -78 96 42 18 -20 -22 -32 -12 -36 -53 -85 94 -90 16 17 5 77 40 -91 97 59 83 88 -31 -39 -48 -68 -13 25 -43 -30 80 -73 50 15 -4 -21 -66 -95 -64 2 -75 -49 92 44 72 10 54 -8 38 71 24 -41 -60 -37 -56 89 26 0
